# Number of links
param NumLinks := 4;

# Define link information in a matrix format
param: StartNode EndNode Cost Capacity :=
1 1 2 2 50
2 2 3 3 40
3 2 4 1 60
4 3 4 1 50
;

# Number of data flow requests
param NumFlowReqs := 2;

# Data flow request information in a matrix format
param: Source Destination DataRate :=
1 1 4 40
2 2 3 30
;
